32      4       
17      14      20      17      
0       0       0       0       0       2       2       7       
3       0       0       1       1       1       3       
10      0       0       3       7       1       4       
4       1       5       0       0       1       5       
5       0       7       0       3       2       12      6       
5       1       0       0       1       1       8       
1       5       0       7       0       1       8       
3       6       0       7       0       1       9       
2       0       0       1       11      1       10      
10      2       0       8       0       1       11      
8       6       2       0       0       1       13      
5       5       1       0       0       1       13      
9       0       0       2       6       1       14      
7       0       5       0       6       1       15      
3       0       3       12      0       2       20      16      
7       0       1       3       0       2       23      17      
7       0       1       0       7       1       18      
6       0       2       0       6       1       19      
9       3       0       0       6       2       31      21      
6       0       0       6       1       2       31      22      
9       0       7       0       1       1       22      
5       1       0       1       0       2       30      24      
5       1       0       0       6       2       30      24      
7       0       12      0       1       1       25      
3       6       0       0       1       1       26      
2       1       1       0       0       1       27      
6       13      0       9       0       1       28      
9       12      1       0       0       1       29      
7       1       0       1       0       1       32      
7       0       4       1       0       1       32      
9       0       1       13      0       1       32      
0       0       0       0       0       0       
